db/data/1949655438822652332328109301811724786.z3.out
-------------------
2500.159442890
